\* The_Warehouse_Problem *\
Minimize
OBJ: 97583.3333333 x_0_0 + 86916.6666667 x_0_1 + 88583.3333333 x_0_10
 + 77916.6666667 x_0_11 + 67250 x_0_12 + 56916.6666667 x_0_13
 + 56916.6666667 x_0_14 + 76250 x_0_2 + 65916.6666667 x_0_3
 + 65583.3333333 x_0_4 + 86916.6666667 x_0_5 + 76250 x_0_6
 + 65583.3333333 x_0_7 + 55250 x_0_8 + 55250 x_0_9 + 138333.333333 x_1_0
 + 123095.238095 x_1_1 + 116619.047619 x_1_10 + 101380.952381 x_1_11
 + 86142.8571429 x_1_12 + 74523.8095238 x_1_13 + 77571.4285714 x_1_14
 + 107857.142857 x_1_2 + 96238.0952381 x_1_3 + 98714.2857143 x_1_4
 + 120428.571429 x_1_5 + 105190.47619 x_1_6 + 89952.3809524 x_1_7
 + 78333.3333333 x_1_8 + 81380.952381 x_1_9 + 114778.125 x_2_0
 + 102178.125 x_2_1 + 100078.125 x_2_10 + 87478.125 x_2_11 + 74878.125 x_2_12
 + 64115.625 x_2_13 + 65515.625 x_2_14 + 89578.125 x_2_2 + 78815.625 x_2_3
 + 79778.125 x_2_4 + 100953.125 x_2_5 + 88353.125 x_2_6 + 75753.125 x_2_7
 + 64990.625 x_2_8 + 66390.625 x_2_9
Subject To
_C1: x_0_0 + x_0_1 + x_0_10 + x_0_11 + x_0_12 + x_0_13 + x_0_14 + x_0_2
 + x_0_3 + x_0_4 + x_0_5 + x_0_6 + x_0_7 + x_0_8 + x_0_9 = 3
_C10: x_0_6 + x_1_6 + x_2_6 <= 1
_C11: x_0_7 + x_1_7 + x_2_7 <= 1
_C12: x_0_8 + x_1_8 + x_2_8 <= 1
_C13: x_0_9 + x_1_9 + x_2_9 <= 1
_C14: x_0_10 + x_1_10 + x_2_10 <= 1
_C15: x_0_11 + x_1_11 + x_2_11 <= 1
_C16: x_0_12 + x_1_12 + x_2_12 <= 1
_C17: x_0_13 + x_1_13 + x_2_13 <= 1
_C18: x_0_14 + x_1_14 + x_2_14 <= 1
_C2: x_1_0 + x_1_1 + x_1_10 + x_1_11 + x_1_12 + x_1_13 + x_1_14 + x_1_2
 + x_1_3 + x_1_4 + x_1_5 + x_1_6 + x_1_7 + x_1_8 + x_1_9 = 7
_C3: x_2_0 + x_2_1 + x_2_10 + x_2_11 + x_2_12 + x_2_13 + x_2_14 + x_2_2
 + x_2_3 + x_2_4 + x_2_5 + x_2_6 + x_2_7 + x_2_8 + x_2_9 = 4
_C4: x_0_0 + x_1_0 + x_2_0 <= 1
_C5: x_0_1 + x_1_1 + x_2_1 <= 1
_C6: x_0_2 + x_1_2 + x_2_2 <= 1
_C7: x_0_3 + x_1_3 + x_2_3 <= 1
_C8: x_0_4 + x_1_4 + x_2_4 <= 1
_C9: x_0_5 + x_1_5 + x_2_5 <= 1
Binaries
x_0_0
x_0_1
x_0_10
x_0_11
x_0_12
x_0_13
x_0_14
x_0_2
x_0_3
x_0_4
x_0_5
x_0_6
x_0_7
x_0_8
x_0_9
x_1_0
x_1_1
x_1_10
x_1_11
x_1_12
x_1_13
x_1_14
x_1_2
x_1_3
x_1_4
x_1_5
x_1_6
x_1_7
x_1_8
x_1_9
x_2_0
x_2_1
x_2_10
x_2_11
x_2_12
x_2_13
x_2_14
x_2_2
x_2_3
x_2_4
x_2_5
x_2_6
x_2_7
x_2_8
x_2_9
End
